peakDumbCharging = 29600; 
Machine = anon_enum(16); 
machineSpeed = [3700,3700,3700,3700,3700,3700,3700,3700,3700,3700,3700,3700,3700,3700,3700,3700]; 
machineLoad = [3700,3700,3700,3700,3700,3700,3700,3700,3700,3700,3700,3700,3700,3700,3700,3700]; 
Car = anon_enum(33); 
demandCar = [5080,80,1600,4360,10040,7120,11160,18000,3400,2880,960,15520,9840,10000,17520,5280,3920,7120,9800,1200,6160,1360,3720,880,1480,4000,15360,3640,26880,31560,25920,18960,39560]; 
arrivalCar = [69,69,68,68,67,67,65,65,63,61,61,61,60,58,57,56,56,56,54,53,51,48,44,41,39,39,36,36,26,26,23,23,22]; 
departureCar = [73,70,72,71,71,75,69,72,65,64,63,68,64,65,64,59,58,65,61,55,55,50,47,43,41,41,42,39,43,52,32,60,46]; 
